QPLIB_3680
LGQ
minimize
108 # number of variables
52 # number of constraints
0.0 # default value for linear coefficients in objective
96 # number of non-default linear coefficients in objective
1 605.2798401
2 272.6085559
3 211.9606564
4 135.7150481
5 522.2414693
6 523.5634439
7 619.3960687
8 682.8551105
9 114.6216848
10 261.1733791
11 513.9471811
12 358.827151
13 52.69563635
14 220.5165897
15 345.5281101
16 282.457316
17 164.6933923
18 399.5378419
19 579.7832259
20 516.2207927
21 141.7475333
22 335.9962956
23 476.041672
24 412.4170905
25 249.0212883
26 32.6643718
27 199.8805192
28 133.8762494
29 728.4574562
30 404.6014617
31 192.0789073
32 305.7683949
33 221.3372767
34 192.0299495
35 290.4444871
36 290.5896077
37 51.4630955
38 378.9771421
39 703.6763268
40 539.3522219
41 204.0688632
42 463.9228848
43 653.5968247
44 561.3609266
45 266.9465724
46 560.3511773
47 769.1362255
48 680.6087319
49 63.93460101
50 279.0076316
51 482.1641879
52 396.080242
53 220.0274683
54 241.2438009
55 278.1373353
56 303.1062886
57 422.2023074
58 190.7925839
59 305.3917268
60 321.4175185
61 658.9413665
62 257.6209099
63 150.646514
64 290.9696393
65 505.2854548
66 51.8926026
67 331.5039985
68 203.9336284
69 342.1321186
70 368.9560041
71 594.3052585
72 387.0860942
73 159.0122854
74 466.8301635
75 692.3074199
76 595.5297588
77 367.3987167
78 816.2959966
79 1138.188991
80 1010.100828
81 334.527248
82 153.3806286
83 110.155627
84 304.2674927
85 134.6182656
86 94.97179401
87 386.4198402
88 164.8397226
89 114.1903226
90 292.732952
91 143.4299459
92 106.4856396
93 113818.8991
94 113818.8991
95 113818.8991
96 113818.8991
0.0 # objective constant
36 # number of quadratic terms in all constraints
41 1 1 -2.0
41 1 1 2.0
41 1 1 2.0
42 1 1 -2.0
42 1 1 2.0
42 1 1 2.0
43 1 1 -2.0
43 1 1 2.0
43 1 1 2.0
44 1 1 -2.0
44 1 1 2.0
44 1 1 2.0
45 1 1 -2.0
45 1 1 2.0
45 1 1 2.0
46 1 1 -2.0
46 1 1 2.0
46 1 1 2.0
47 1 1 -2.0
47 1 1 2.0
47 1 1 2.0
48 1 1 -2.0
48 1 1 2.0
48 1 1 2.0
49 1 1 -2.0
49 1 1 2.0
49 1 1 2.0
50 1 1 -2.0
50 1 1 2.0
50 1 1 2.0
51 1 1 -2.0
51 1 1 2.0
51 1 1 2.0
52 1 1 -2.0
52 1 1 2.0
52 1 1 2.0
208 # number of linear terms in all constraints
1 1 1.051196132
1 5 1.318044576
1 9 0.980364732
1 13 0.515442765
1 17 0.868604743
1 21 0.607373159
1 25 0.785278546
1 29 0.995650311
1 33 0.767039688
1 37 1.321644376
1 41 0.80017289
1 45 0.935237992
1 49 0.892997692
1 53 0.501935535
1 57 1.211683537
1 61 1.39435304
1 65 1.454079593
1 69 0.971951107
1 73 0.997801135
1 77 1.479427834
1 97 -4.030318483
1 98 -8.060636965
1 99 -12.09095545
2 2 1.051196132
2 6 1.318044576
2 10 0.980364732
2 14 0.515442765
2 18 0.868604743
2 22 0.607373159
2 26 0.785278546
2 30 0.995650311
2 34 0.767039688
2 38 1.321644376
2 42 0.80017289
2 46 0.935237992
2 50 0.892997692
2 54 0.501935535
2 58 1.211683537
2 62 1.39435304
2 66 1.454079593
2 70 0.971951107
2 74 0.997801135
2 78 1.479427834
2 100 -3.293754444
2 101 -6.587508888
2 102 -9.881263331
3 3 1.051196132
3 7 1.318044576
3 11 0.980364732
3 15 0.515442765
3 19 0.868604743
3 23 0.607373159
3 27 0.785278546
3 31 0.995650311
3 35 0.767039688
3 39 1.321644376
3 43 0.80017289
3 47 0.935237992
3 51 0.892997692
3 55 0.501935535
3 59 1.211683537
3 63 1.39435304
3 67 1.454079593
3 71 0.971951107
3 75 0.997801135
3 79 1.479427834
3 103 -3.749355961
3 104 -7.498711923
3 105 -11.24806788
4 4 1.051196132
4 8 1.318044576
4 12 0.980364732
4 16 0.515442765
4 20 0.868604743
4 24 0.607373159
4 28 0.785278546
4 32 0.995650311
4 36 0.767039688
4 40 1.321644376
4 44 0.80017289
4 48 0.935237992
4 52 0.892997692
4 56 0.501935535
4 60 1.211683537
4 64 1.39435304
4 68 1.454079593
4 72 0.971951107
4 76 0.997801135
4 80 1.479427834
4 106 -4.303957421
4 107 -8.607914842
4 108 -12.91187226
5 1 1.0
5 2 1.0
5 3 1.0
5 4 1.0
6 5 1.0
6 6 1.0
6 7 1.0
6 8 1.0
7 9 1.0
7 10 1.0
7 11 1.0
7 12 1.0
8 13 1.0
8 14 1.0
8 15 1.0
8 16 1.0
9 17 1.0
9 18 1.0
9 19 1.0
9 20 1.0
10 21 1.0
10 22 1.0
10 23 1.0
10 24 1.0
11 25 1.0
11 26 1.0
11 27 1.0
11 28 1.0
12 29 1.0
12 30 1.0
12 31 1.0
12 32 1.0
13 33 1.0
13 34 1.0
13 35 1.0
13 36 1.0
14 37 1.0
14 38 1.0
14 39 1.0
14 40 1.0
15 41 1.0
15 42 1.0
15 43 1.0
15 44 1.0
16 45 1.0
16 46 1.0
16 47 1.0
16 48 1.0
17 49 1.0
17 50 1.0
17 51 1.0
17 52 1.0
18 53 1.0
18 54 1.0
18 55 1.0
18 56 1.0
19 57 1.0
19 58 1.0
19 59 1.0
19 60 1.0
20 61 1.0
20 62 1.0
20 63 1.0
20 64 1.0
21 65 1.0
21 66 1.0
21 67 1.0
21 68 1.0
22 69 1.0
22 70 1.0
22 71 1.0
22 72 1.0
23 73 1.0
23 74 1.0
23 75 1.0
23 76 1.0
24 77 1.0
24 78 1.0
24 79 1.0
24 80 1.0
25 81 1.0
25 82 1.0
25 83 1.0
26 84 1.0
26 85 1.0
26 86 1.0
27 87 1.0
27 88 1.0
27 89 1.0
28 90 1.0
28 91 1.0
28 92 1.0
29 81 -1.0
29 97 1.0
30 82 -1.0
30 98 1.0
31 83 -1.0
31 99 1.0
32 84 -1.0
32 100 1.0
33 85 -1.0
33 101 1.0
34 86 -1.0
34 102 1.0
35 87 -1.0
35 103 1.0
36 88 -1.0
36 104 1.0
37 89 -1.0
37 105 1.0
38 90 -1.0
38 106 1.0
39 91 -1.0
39 107 1.0
40 92 -1.0
40 108 1.0
1.79769313486232E+308 # value for infinity
-1.79769313486232E+308 # default left-hand-side value
24 # number of non-default left-hand-sides
1 0.0
2 0.0
3 0.0
4 0.0
5 1.0
6 1.0
7 1.0
8 1.0
9 1.0
10 1.0
11 1.0
12 1.0
13 1.0
14 1.0
15 1.0
16 1.0
17 1.0
18 1.0
19 1.0
20 1.0
21 1.0
22 1.0
23 1.0
24 1.0
0.0 # default right-hand-side value
24 # number of non-default right-hand-sides
5 1.0
6 1.0
7 1.0
8 1.0
9 1.0
10 1.0
11 1.0
12 1.0
13 1.0
14 1.0
15 1.0
16 1.0
17 1.0
18 1.0
19 1.0
20 1.0
21 1.0
22 1.0
23 1.0
24 1.0
25 1.0
26 1.0
27 1.0
28 1.0
0.0 # default variable lower bound value
0 # number of non-default variable lower bounds
1.0 # default variable upper bound value
16 # number of non-default variable upper bounds
93 1.79769313486232E+308
94 1.79769313486232E+308
95 1.79769313486232E+308
96 1.79769313486232E+308
97 1.79769313486232E+308
98 1.79769313486232E+308
99 1.79769313486232E+308
100 1.79769313486232E+308
101 1.79769313486232E+308
102 1.79769313486232E+308
103 1.79769313486232E+308
104 1.79769313486232E+308
105 1.79769313486232E+308
106 1.79769313486232E+308
107 1.79769313486232E+308
108 1.79769313486232E+308
1 # default variable type
16 # number of non-default variable types
93 1
94 1
95 1
96 1
97 1
98 1
99 1
100 1
101 1
102 1
103 1
104 1
105 1
106 1
107 1
108 1
0.0 # default variable primal value in starting point
0 # number of non-default variable primal values in starting point
0.0 # default constraint dual value in starting point
0 # number of non-default constraint dual values in starting point
0.0 # default variable bound dual value in starting point
0 # number of non-default variable bound dual values in starting point
0 # number of non-default variable names
0 # number of non-default constraint names
